
Gurobi 9.1.1 (linux64) logging started Tue Oct 19 11:54:34 2021

Changed value of parameter LogFile to results/max2cut_numv160/max2cut_numv160_i160-035_peel_decompose_weighted_BQO_log.txt
   Prev:   Default: 
Gurobi Optimizer version 9.1.1 build v9.1.1rc0 (linux64)
Thread count: 20 physical cores, 40 logical processors, using up to 10 threads
Optimize a model with 153 rows, 306 columns and 306 nonzeros
Model fingerprint: 0xdc7c3c26
Model has 932 quadratic objective terms
Variable types: 0 continuous, 306 integer (306 binary)
Coefficient statistics:
  Matrix range     [1e+00, 1e+00]
  Objective range  [8e+01, 8e+01]
  QObjective range [2e+02, 6e+02]
  Bounds range     [1e+00, 1e+00]
  RHS range        [1e+00, 1e+00]
Found heuristic solution: objective -0.0000000
Presolve removed 153 rows and 155 columns
Presolve time: 0.00s
Presolved: 302 rows, 453 columns, 906 nonzeros
Found heuristic solution: objective 721.0000000
Variable types: 0 continuous, 453 integer (453 binary)
Found heuristic solution: objective 21343.000000

Root relaxation: objective -3.418650e+04, 106 iterations, 0.00 seconds

    Nodes    |    Current Node    |     Objective Bounds      |     Work
 Expl Unexpl |  Obj  Depth IntInf | Incumbent    BestBd   Gap | It/Node Time

     0     0 34186.5000    0  150 21343.0000 34186.5000  60.2%     -    0s
H    0     0                    26160.000000 34186.5000  30.7%     -    0s
H    0     0                    26583.000000 34186.5000  28.6%     -    0s
H    0     0                    28509.000000 32822.0000  15.1%     -    0s
     0     0 32810.5000    0  171 28509.0000 32810.5000  15.1%     -    0s
H    0     0                    28747.000000 32810.5000  14.1%     -    0s
     0     0 32287.5000    0  178 28747.0000 32287.5000  12.3%     -    0s
     0     0 32287.5000    0  178 28747.0000 32287.5000  12.3%     -    0s
H    0     0                    29638.000000 32287.5000  8.94%     -    0s
H    0     2                    29644.000000 32287.5000  8.92%     -    0s
     0     2 32287.5000    0  178 29644.0000 32287.5000  8.92%     -    0s
H   38    46                    29657.000000 31381.0000  5.81%  48.5    0s
H  160   149                    29671.000000 31339.0000  5.62%  35.9    0s
*  176   176              14    30234.000000 31339.0000  3.65%  34.4    0s

Cutting planes:
  Gomory: 5
  MIR: 1
  Zero half: 65
  RLT: 3

Explored 1023 nodes (29685 simplex iterations) in 0.39 seconds
Thread count was 10 (of 40 available processors)

Solution count 10: 30234 29671 29657 ... 21343

Optimal solution found (tolerance 0.00e+00)
Best objective 3.023400000000e+04, best bound 3.023400000000e+04, gap 0.0000%
